3884678
110,175,155,103,102,202,8,39,107,214,150,182,91,55,53,174,114,185,149,115,95,19,116,129,12,122,28,208,180,153,46,47,75,13,119,125,23,189,148,179,222,186,87,223,216,145,2,50,159,40,142,51,92,157,24,120,130,187,99,97,96,193,211,20,36,106,134,22,80,77,54,108,169,170,171,57,58,94,45,226,133,192,205,131,123,215,98,52,89,105,221,65,30,188,158,165,14,6,49,74,143,144,100,160,69,68,210,5,152,67,184,35,111,126,176,56,37,213,196,64,44,229,109,43,59,136,137,200,201,140,84,83,82,228,139,31,34,183,21,227,128,178,88,62,162,206,72,225,121,203,147,217,166,172,173,124,118,10,138,81,90,191,93,151,79,212,220,181,167,61,86,168,27,26,3,4,48,38,70,71,132,154,101,195,11,78,113,112,197,104,17,161,73,117,63,141,127,1,76,218,60,135,85,177,156,42,146,66,0,209,25,204,33,32,29,198,194,16,18,224,164,219,7,190,199,163,9,15,207,41
